c b=6,c=513
p cnf 21 27
6 -12 0
6 -21 0
-6 12 0
-6 21 0
5 -11 0
5 -20 0
-5 11 0
-5 20 0
4 -10 0
4 -19 0
-4 10 0
-4 19 0
3 -9 0
3 -18 0
-3 9 0
-3 18 0
2 -8 0
2 -17 0
-2 8 0
-2 17 0
1 -7 0
1 -16 0
-1 7 0
-1 16 0
-13 0
-14 0
-15 0
